NAME enlight13
ROWS
 N  OBJ
 E  R0      
 E  R1      
 E  R2      
 E  R3      
 E  R4      
 E  R5      
 E  R6      
 E  R7      
 E  R8      
 E  R9      
 E  R10     
 E  R11     
 E  R12     
 E  R13     
 E  R14     
 E  R15     
 E  R16     
 E  R17     
 E  R18     
 E  R19     
 E  R20     
 E  R21     
 E  R22     
 E  R23     
 E  R24     
 E  R25     
 E  R26     
 E  R27     
 E  R28     
 E  R29     
 E  R30     
 E  R31     
 E  R32     
 E  R33     
 E  R34     
 E  R35     
 E  R36     
 E  R37     
 E  R38     
 E  R39     
 E  R40     
 E  R41     
 E  R42     
 E  R43     
 E  R44     
 E  R45     
 E  R46     
 E  R47     
 E  R48     
 E  R49     
 E  R50     
 E  R51     
 E  R52     
 E  R53     
 E  R54     
 E  R55     
 E  R56     
 E  R57     
 E  R58     
 E  R59     
 E  R60     
 E  R61     
 E  R62     
 E  R63     
 E  R64     
 E  R65     
 E  R66     
 E  R67     
 E  R68     
 E  R69     
 E  R70     
 E  R71     
 E  R72     
 E  R73     
 E  R74     
 E  R75     
 E  R76     
 E  R77     
 E  R78     
 E  R79     
 E  R80     
 E  R81     
 E  R82     
 E  R83     
 E  R84     
 E  R85     
 E  R86     
 E  R87     
 E  R88     
 E  R89     
 E  R90     
 E  R91     
 E  R92     
 E  R93     
 E  R94     
 E  R95     
 E  R96     
 E  R97     
 E  R98     
 E  R99     
 E  R100    
 E  R101    
 E  R102    
 E  R103    
 E  R104    
 E  R105    
 E  R106    
 E  R107    
 E  R108    
 E  R109    
 E  R110    
 E  R111    
 E  R112    
 E  R113    
 E  R114    
 E  R115    
 E  R116    
 E  R117    
 E  R118    
 E  R119    
 E  R120    
 E  R121    
 E  R122    
 E  R123    
 E  R124    
 E  R125    
 E  R126    
 E  R127    
 E  R128    
 E  R129    
 E  R130    
 E  R131    
 E  R132    
 E  R133    
 E  R134    
 E  R135    
 E  R136    
 E  R137    
 E  R138    
 E  R139    
 E  R140    
 E  R141    
 E  R142    
 E  R143    
 E  R144    
 E  R145    
 E  R146    
 E  R147    
 E  R148    
 E  R149    
 E  R150    
 E  R151    
 E  R152    
 E  R153    
 E  R154    
 E  R155    
 E  R156    
 E  R157    
 E  R158    
 E  R159    
 E  R160    
 E  R161    
 E  R162    
 E  R163    
 E  R164    
 E  R165    
 E  R166    
 E  R167    
 E  R168    
COLUMNS
    C0        OBJ       1
    C0        R121      1
    C0        R143      1
    C0        R165      1
    C1        OBJ       1
    C1        R0        1
    C1        R121      1
    C1        R122      1
    C1        R165      1
    C2        OBJ       1
    C2        R1        1
    C2        R121      1
    C2        R122      1
    C2        R123      1
    C3        OBJ       1
    C3        R2        1
    C3        R122      1
    C3        R123      1
    C3        R124      1
    C4        OBJ       1
    C4        R3        1
    C4        R123      1
    C4        R124      1
    C4        R125      1
    C5        OBJ       1
    C5        R4        1
    C5        R124      1
    C5        R125      1
    C5        R126      1
    C6        OBJ       1
    C6        R5        1
    C6        R125      1
    C6        R126      1
    C6        R127      1
    C7        OBJ       1
    C7        R6        1
    C7        R126      1
    C7        R127      1
    C7        R128      1
    C8        OBJ       1
    C8        R7        1
    C8        R127      1
    C8        R128      1
    C8        R129      1
    C9        OBJ       1
    C9        R8        1
    C9        R128      1
    C9        R129      1
    C9        R130      1
    C10       OBJ       1
    C10       R9        1
    C10       R129      1
    C10       R130      1
    C10       R131      1
    C11       OBJ       1
    C11       R10       1
    C11       R130      1
    C11       R131      1
    C11       R167      1
    C12       OBJ       1
    C12       R131      1
    C12       R154      1
    C12       R167      1
    C13       OBJ       1
    C13       R0        1
    C13       R143      1
    C13       R144      1
    C13       R165      1
    C14       OBJ       1
    C14       R0        1
    C14       R1        1
    C14       R11       1
    C14       R121      1
    C14       R143      1
    C15       OBJ       1
    C15       R0        1
    C15       R1        1
    C15       R2        1
    C15       R12       1
    C15       R122      1
    C16       OBJ       1
    C16       R1        1
    C16       R2        1
    C16       R3        1
    C16       R13       1
    C16       R123      1
    C17       OBJ       1
    C17       R2        1
    C17       R3        1
    C17       R4        1
    C17       R14       1
    C17       R124      1
    C18       OBJ       1
    C18       R3        1
    C18       R4        1
    C18       R5        1
    C18       R15       1
    C18       R125      1
    C19       OBJ       1
    C19       R4        1
    C19       R5        1
    C19       R6        1
    C19       R16       1
    C19       R126      1
    C20       OBJ       1
    C20       R5        1
    C20       R6        1
    C20       R7        1
    C20       R17       1
    C20       R127      1
    C21       OBJ       1
    C21       R6        1
    C21       R7        1
    C21       R8        1
    C21       R18       1
    C21       R128      1
    C22       OBJ       1
    C22       R7        1
    C22       R8        1
    C22       R9        1
    C22       R19       1
    C22       R129      1
    C23       OBJ       1
    C23       R8        1
    C23       R9        1
    C23       R10       1
    C23       R20       1
    C23       R130      1
    C24       OBJ       1
    C24       R9        1
    C24       R10       1
    C24       R21       1
    C24       R131      1
    C24       R154      1
    C25       OBJ       1
    C25       R10       1
    C25       R154      1
    C25       R155      1
    C25       R167      1
    C26       OBJ       1
    C26       R11       1
    C26       R143      1
    C26       R144      1
    C26       R145      1
    C27       OBJ       1
    C27       R0        1
    C27       R11       1
    C27       R12       1
    C27       R22       1
    C27       R144      1
    C28       OBJ       1
    C28       R1        1
    C28       R11       1
    C28       R12       1
    C28       R13       1
    C28       R23       1
    C29       OBJ       1
    C29       R2        1
    C29       R12       1
    C29       R13       1
    C29       R14       1
    C29       R24       1
    C30       OBJ       1
    C30       R3        1
    C30       R13       1
    C30       R14       1
    C30       R15       1
    C30       R25       1
    C31       OBJ       1
    C31       R4        1
    C31       R14       1
    C31       R15       1
    C31       R16       1
    C31       R26       1
    C32       OBJ       1
    C32       R5        1
    C32       R15       1
    C32       R16       1
    C32       R17       1
    C32       R27       1
    C33       OBJ       1
    C33       R6        1
    C33       R16       1
    C33       R17       1
    C33       R18       1
    C33       R28       1
    C34       OBJ       1
    C34       R7        1
    C34       R17       1
    C34       R18       1
    C34       R19       1
    C34       R29       1
    C35       OBJ       1
    C35       R8        1
    C35       R18       1
    C35       R19       1
    C35       R20       1
    C35       R30       1
    C36       OBJ       1
    C36       R9        1
    C36       R19       1
    C36       R20       1
    C36       R21       1
    C36       R31       1
    C37       OBJ       1
    C37       R10       1
    C37       R20       1
    C37       R21       1
    C37       R32       1
    C37       R155      1
    C38       OBJ       1
    C38       R21       1
    C38       R154      1
    C38       R155      1
    C38       R156      1
    C39       OBJ       1
    C39       R22       1
    C39       R144      1
    C39       R145      1
    C39       R146      1
    C40       OBJ       1
    C40       R11       1
    C40       R22       1
    C40       R23       1
    C40       R33       1
    C40       R145      1
    C41       OBJ       1
    C41       R12       1
    C41       R22       1
    C41       R23       1
    C41       R24       1
    C41       R34       1
    C42       OBJ       1
    C42       R13       1
    C42       R23       1
    C42       R24       1
    C42       R25       1
    C42       R35       1
    C43       OBJ       1
    C43       R14       1
    C43       R24       1
    C43       R25       1
    C43       R26       1
    C43       R36       1
    C44       OBJ       1
    C44       R15       1
    C44       R25       1
    C44       R26       1
    C44       R27       1
    C44       R37       1
    C45       OBJ       1
    C45       R16       1
    C45       R26       1
    C45       R27       1
    C45       R28       1
    C45       R38       1
    C46       OBJ       1
    C46       R17       1
    C46       R27       1
    C46       R28       1
    C46       R29       1
    C46       R39       1
    C47       OBJ       1
    C47       R18       1
    C47       R28       1
    C47       R29       1
    C47       R30       1
    C47       R40       1
    C48       OBJ       1
    C48       R19       1
    C48       R29       1
    C48       R30       1
    C48       R31       1
    C48       R41       1
    C49       OBJ       1
    C49       R20       1
    C49       R30       1
    C49       R31       1
    C49       R32       1
    C49       R42       1
    C50       OBJ       1
    C50       R21       1
    C50       R31       1
    C50       R32       1
    C50       R43       1
    C50       R156      1
    C51       OBJ       1
    C51       R32       1
    C51       R155      1
    C51       R156      1
    C51       R157      1
    C52       OBJ       1
    C52       R33       1
    C52       R145      1
    C52       R146      1
    C52       R147      1
    C53       OBJ       1
    C53       R22       1
    C53       R33       1
    C53       R34       1
    C53       R44       1
    C53       R146      1
    C54       OBJ       1
    C54       R23       1
    C54       R33       1
    C54       R34       1
    C54       R35       1
    C54       R45       1
    C55       OBJ       1
    C55       R24       1
    C55       R34       1
    C55       R35       1
    C55       R36       1
    C55       R46       1
    C56       OBJ       1
    C56       R25       1
    C56       R35       1
    C56       R36       1
    C56       R37       1
    C56       R47       1
    C57       OBJ       1
    C57       R26       1
    C57       R36       1
    C57       R37       1
    C57       R38       1
    C57       R48       1
    C58       OBJ       1
    C58       R27       1
    C58       R37       1
    C58       R38       1
    C58       R39       1
    C58       R49       1
    C59       OBJ       1
    C59       R28       1
    C59       R38       1
    C59       R39       1
    C59       R40       1
    C59       R50       1
    C60       OBJ       1
    C60       R29       1
    C60       R39       1
    C60       R40       1
    C60       R41       1
    C60       R51       1
    C61       OBJ       1
    C61       R30       1
    C61       R40       1
    C61       R41       1
    C61       R42       1
    C61       R52       1
    C62       OBJ       1
    C62       R31       1
    C62       R41       1
    C62       R42       1
    C62       R43       1
    C62       R53       1
    C63       OBJ       1
    C63       R32       1
    C63       R42       1
    C63       R43       1
    C63       R54       1
    C63       R157      1
    C64       OBJ       1
    C64       R43       1
    C64       R156      1
    C64       R157      1
    C64       R158      1
    C65       OBJ       1
    C65       R44       1
    C65       R146      1
    C65       R147      1
    C65       R148      1
    C66       OBJ       1
    C66       R33       1
    C66       R44       1
    C66       R45       1
    C66       R55       1
    C66       R147      1
    C67       OBJ       1
    C67       R34       1
    C67       R44       1
    C67       R45       1
    C67       R46       1
    C67       R56       1
    C68       OBJ       1
    C68       R35       1
    C68       R45       1
    C68       R46       1
    C68       R47       1
    C68       R57       1
    C69       OBJ       1
    C69       R36       1
    C69       R46       1
    C69       R47       1
    C69       R48       1
    C69       R58       1
    C70       OBJ       1
    C70       R37       1
    C70       R47       1
    C70       R48       1
    C70       R49       1
    C70       R59       1
    C71       OBJ       1
    C71       R38       1
    C71       R48       1
    C71       R49       1
    C71       R50       1
    C71       R60       1
    C72       OBJ       1
    C72       R39       1
    C72       R49       1
    C72       R50       1
    C72       R51       1
    C72       R61       1
    C73       OBJ       1
    C73       R40       1
    C73       R50       1
    C73       R51       1
    C73       R52       1
    C73       R62       1
    C74       OBJ       1
    C74       R41       1
    C74       R51       1
    C74       R52       1
    C74       R53       1
    C74       R63       1
    C75       OBJ       1
    C75       R42       1
    C75       R52       1
    C75       R53       1
    C75       R54       1
    C75       R64       1
    C76       OBJ       1
    C76       R43       1
    C76       R53       1
    C76       R54       1
    C76       R65       1
    C76       R158      1
    C77       OBJ       1
    C77       R54       1
    C77       R157      1
    C77       R158      1
    C77       R159      1
    C78       OBJ       1
    C78       R55       1
    C78       R147      1
    C78       R148      1
    C78       R149      1
    C79       OBJ       1
    C79       R44       1
    C79       R55       1
    C79       R56       1
    C79       R66       1
    C79       R148      1
    C80       OBJ       1
    C80       R45       1
    C80       R55       1
    C80       R56       1
    C80       R57       1
    C80       R67       1
    C81       OBJ       1
    C81       R46       1
    C81       R56       1
    C81       R57       1
    C81       R58       1
    C81       R68       1
    C82       OBJ       1
    C82       R47       1
    C82       R57       1
    C82       R58       1
    C82       R59       1
    C82       R69       1
    C83       OBJ       1
    C83       R48       1
    C83       R58       1
    C83       R59       1
    C83       R60       1
    C83       R70       1
    C84       OBJ       1
    C84       R49       1
    C84       R59       1
    C84       R60       1
    C84       R61       1
    C84       R71       1
    C85       OBJ       1
    C85       R50       1
    C85       R60       1
    C85       R61       1
    C85       R62       1
    C85       R72       1
    C86       OBJ       1
    C86       R51       1
    C86       R61       1
    C86       R62       1
    C86       R63       1
    C86       R73       1
    C87       OBJ       1
    C87       R52       1
    C87       R62       1
    C87       R63       1
    C87       R64       1
    C87       R74       1
    C88       OBJ       1
    C88       R53       1
    C88       R63       1
    C88       R64       1
    C88       R65       1
    C88       R75       1
    C89       OBJ       1
    C89       R54       1
    C89       R64       1
    C89       R65       1
    C89       R76       1
    C89       R159      1
    C90       OBJ       1
    C90       R65       1
    C90       R158      1
    C90       R159      1
    C90       R160      1
    C91       OBJ       1
    C91       R66       1
    C91       R148      1
    C91       R149      1
    C91       R150      1
    C92       OBJ       1
    C92       R55       1
    C92       R66       1
    C92       R67       1
    C92       R77       1
    C92       R149      1
    C93       OBJ       1
    C93       R56       1
    C93       R66       1
    C93       R67       1
    C93       R68       1
    C93       R78       1
    C94       OBJ       1
    C94       R57       1
    C94       R67       1
    C94       R68       1
    C94       R69       1
    C94       R79       1
    C95       OBJ       1
    C95       R58       1
    C95       R68       1
    C95       R69       1
    C95       R70       1
    C95       R80       1
    C96       OBJ       1
    C96       R59       1
    C96       R69       1
    C96       R70       1
    C96       R71       1
    C96       R81       1
    C97       OBJ       1
    C97       R60       1
    C97       R70       1
    C97       R71       1
    C97       R72       1
    C97       R82       1
    C98       OBJ       1
    C98       R61       1
    C98       R71       1
    C98       R72       1
    C98       R73       1
    C98       R83       1
    C99       OBJ       1
    C99       R62       1
    C99       R72       1
    C99       R73       1
    C99       R74       1
    C99       R84       1
    C100      OBJ       1
    C100      R63       1
    C100      R73       1
    C100      R74       1
    C100      R75       1
    C100      R85       1
    C101      OBJ       1
    C101      R64       1
    C101      R74       1
    C101      R75       1
    C101      R76       1
    C101      R86       1
    C102      OBJ       1
    C102      R65       1
    C102      R75       1
    C102      R76       1
    C102      R87       1
    C102      R160      1
    C103      OBJ       1
    C103      R76       1
    C103      R159      1
    C103      R160      1
    C103      R161      1
    C104      OBJ       1
    C104      R77       1
    C104      R149      1
    C104      R150      1
    C104      R151      1
    C105      OBJ       1
    C105      R66       1
    C105      R77       1
    C105      R78       1
    C105      R88       1
    C105      R150      1
    C106      OBJ       1
    C106      R67       1
    C106      R77       1
    C106      R78       1
    C106      R79       1
    C106      R89       1
    C107      OBJ       1
    C107      R68       1
    C107      R78       1
    C107      R79       1
    C107      R80       1
    C107      R90       1
    C108      OBJ       1
    C108      R69       1
    C108      R79       1
    C108      R80       1
    C108      R81       1
    C108      R91       1
    C109      OBJ       1
    C109      R70       1
    C109      R80       1
    C109      R81       1
    C109      R82       1
    C109      R92       1
    C110      OBJ       1
    C110      R71       1
    C110      R81       1
    C110      R82       1
    C110      R83       1
    C110      R93       1
    C111      OBJ       1
    C111      R72       1
    C111      R82       1
    C111      R83       1
    C111      R84       1
    C111      R94       1
    C112      OBJ       1
    C112      R73       1
    C112      R83       1
    C112      R84       1
    C112      R85       1
    C112      R95       1
    C113      OBJ       1
    C113      R74       1
    C113      R84       1
    C113      R85       1
    C113      R86       1
    C113      R96       1
    C114      OBJ       1
    C114      R75       1
    C114      R85       1
    C114      R86       1
    C114      R87       1
    C114      R97       1
    C115      OBJ       1
    C115      R76       1
    C115      R86       1
    C115      R87       1
    C115      R98       1
    C115      R161      1
    C116      OBJ       1
    C116      R87       1
    C116      R160      1
    C116      R161      1
    C116      R162      1
    C117      OBJ       1
    C117      R88       1
    C117      R150      1
    C117      R151      1
    C117      R152      1
    C118      OBJ       1
    C118      R77       1
    C118      R88       1
    C118      R89       1
    C118      R99       1
    C118      R151      1
    C119      OBJ       1
    C119      R78       1
    C119      R88       1
    C119      R89       1
    C119      R90       1
    C119      R100      1
    C120      OBJ       1
    C120      R79       1
    C120      R89       1
    C120      R90       1
    C120      R91       1
    C120      R101      1
    C121      OBJ       1
    C121      R80       1
    C121      R90       1
    C121      R91       1
    C121      R92       1
    C121      R102      1
    C122      OBJ       1
    C122      R81       1
    C122      R91       1
    C122      R92       1
    C122      R93       1
    C122      R103      1
    C123      OBJ       1
    C123      R82       1
    C123      R92       1
    C123      R93       1
    C123      R94       1
    C123      R104      1
    C124      OBJ       1
    C124      R83       1
    C124      R93       1
    C124      R94       1
    C124      R95       1
    C124      R105      1
    C125      OBJ       1
    C125      R84       1
    C125      R94       1
    C125      R95       1
    C125      R96       1
    C125      R106      1
    C126      OBJ       1
    C126      R85       1
    C126      R95       1
    C126      R96       1
    C126      R97       1
    C126      R107      1
    C127      OBJ       1
    C127      R86       1
    C127      R96       1
    C127      R97       1
    C127      R98       1
    C127      R108      1
    C128      OBJ       1
    C128      R87       1
    C128      R97       1
    C128      R98       1
    C128      R109      1
    C128      R162      1
    C129      OBJ       1
    C129      R98       1
    C129      R161      1
    C129      R162      1
    C129      R163      1
    C130      OBJ       1
    C130      R99       1
    C130      R151      1
    C130      R152      1
    C130      R153      1
    C131      OBJ       1
    C131      R88       1
    C131      R99       1
    C131      R100      1
    C131      R110      1
    C131      R152      1
    C132      OBJ       1
    C132      R89       1
    C132      R99       1
    C132      R100      1
    C132      R101      1
    C132      R111      1
    C133      OBJ       1
    C133      R90       1
    C133      R100      1
    C133      R101      1
    C133      R102      1
    C133      R112      1
    C134      OBJ       1
    C134      R91       1
    C134      R101      1
    C134      R102      1
    C134      R103      1
    C134      R113      1
    C135      OBJ       1
    C135      R92       1
    C135      R102      1
    C135      R103      1
    C135      R104      1
    C135      R114      1
    C136      OBJ       1
    C136      R93       1
    C136      R103      1
    C136      R104      1
    C136      R105      1
    C136      R115      1
    C137      OBJ       1
    C137      R94       1
    C137      R104      1
    C137      R105      1
    C137      R106      1
    C137      R116      1
    C138      OBJ       1
    C138      R95       1
    C138      R105      1
    C138      R106      1
    C138      R107      1
    C138      R117      1
    C139      OBJ       1
    C139      R96       1
    C139      R106      1
    C139      R107      1
    C139      R108      1
    C139      R118      1
    C140      OBJ       1
    C140      R97       1
    C140      R107      1
    C140      R108      1
    C140      R109      1
    C140      R119      1
    C141      OBJ       1
    C141      R98       1
    C141      R108      1
    C141      R109      1
    C141      R120      1
    C141      R163      1
    C142      OBJ       1
    C142      R109      1
    C142      R162      1
    C142      R163      1
    C142      R164      1
    C143      OBJ       1
    C143      R110      1
    C143      R152      1
    C143      R153      1
    C143      R166      1
    C144      OBJ       1
    C144      R99       1
    C144      R110      1
    C144      R111      1
    C144      R132      1
    C144      R153      1
    C145      OBJ       1
    C145      R100      1
    C145      R110      1
    C145      R111      1
    C145      R112      1
    C145      R133      1
    C146      OBJ       1
    C146      R101      1
    C146      R111      1
    C146      R112      1
    C146      R113      1
    C146      R134      1
    C147      OBJ       1
    C147      R102      1
    C147      R112      1
    C147      R113      1
    C147      R114      1
    C147      R135      1
    C148      OBJ       1
    C148      R103      1
    C148      R113      1
    C148      R114      1
    C148      R115      1
    C148      R136      1
    C149      OBJ       1
    C149      R104      1
    C149      R114      1
    C149      R115      1
    C149      R116      1
    C149      R137      1
    C150      OBJ       1
    C150      R105      1
    C150      R115      1
    C150      R116      1
    C150      R117      1
    C150      R138      1
    C151      OBJ       1
    C151      R106      1
    C151      R116      1
    C151      R117      1
    C151      R118      1
    C151      R139      1
    C152      OBJ       1
    C152      R107      1
    C152      R117      1
    C152      R118      1
    C152      R119      1
    C152      R140      1
    C153      OBJ       1
    C153      R108      1
    C153      R118      1
    C153      R119      1
    C153      R120      1
    C153      R141      1
    C154      OBJ       1
    C154      R109      1
    C154      R119      1
    C154      R120      1
    C154      R142      1
    C154      R164      1
    C155      OBJ       1
    C155      R120      1
    C155      R163      1
    C155      R164      1
    C155      R168      1
    C156      OBJ       1
    C156      R132      1
    C156      R153      1
    C156      R166      1
    C157      OBJ       1
    C157      R110      1
    C157      R132      1
    C157      R133      1
    C157      R166      1
    C158      OBJ       1
    C158      R111      1
    C158      R132      1
    C158      R133      1
    C158      R134      1
    C159      OBJ       1
    C159      R112      1
    C159      R133      1
    C159      R134      1
    C159      R135      1
    C160      OBJ       1
    C160      R113      1
    C160      R134      1
    C160      R135      1
    C160      R136      1
    C161      OBJ       1
    C161      R114      1
    C161      R135      1
    C161      R136      1
    C161      R137      1
    C162      OBJ       1
    C162      R115      1
    C162      R136      1
    C162      R137      1
    C162      R138      1
    C163      OBJ       1
    C163      R116      1
    C163      R137      1
    C163      R138      1
    C163      R139      1
    C164      OBJ       1
    C164      R117      1
    C164      R138      1
    C164      R139      1
    C164      R140      1
    C165      OBJ       1
    C165      R118      1
    C165      R139      1
    C165      R140      1
    C165      R141      1
    C166      OBJ       1
    C166      R119      1
    C166      R140      1
    C166      R141      1
    C166      R142      1
    C167      OBJ       1
    C167      R120      1
    C167      R141      1
    C167      R142      1
    C167      R168      1
    C168      OBJ       1
    C168      R142      1
    C168      R164      1
    C168      R168      1
    C169      R0        -2
    C170      R1        -2
    C171      R2        -2
    C172      R3        -2
    C173      R4        -2
    C174      R5        -2
    C175      R6        -2
    C176      R7        -2
    C177      R8        -2
    C178      R9        -2
    C179      R10       -2
    C180      R11       -2
    C181      R12       -2
    C182      R13       -2
    C183      R14       -2
    C184      R15       -2
    C185      R16       -2
    C186      R17       -2
    C187      R18       -2
    C188      R19       -2
    C189      R20       -2
    C190      R21       -2
    C191      R22       -2
    C192      R23       -2
    C193      R24       -2
    C194      R25       -2
    C195      R26       -2
    C196      R27       -2
    C197      R28       -2
    C198      R29       -2
    C199      R30       -2
    C200      R31       -2
    C201      R32       -2
    C202      R33       -2
    C203      R34       -2
    C204      R35       -2
    C205      R36       -2
    C206      R37       -2
    C207      R38       -2
    C208      R39       -2
    C209      R40       -2
    C210      R41       -2
    C211      R42       -2
    C212      R43       -2
    C213      R44       -2
    C214      R45       -2
    C215      R46       -2
    C216      R47       -2
    C217      R48       -2
    C218      R49       -2
    C219      R50       -2
    C220      R51       -2
    C221      R52       -2
    C222      R53       -2
    C223      R54       -2
    C224      R55       -2
    C225      R56       -2
    C226      R57       -2
    C227      R58       -2
    C228      R59       -2
    C229      R60       -2
    C230      R61       -2
    C231      R62       -2
    C232      R63       -2
    C233      R64       -2
    C234      R65       -2
    C235      R66       -2
    C236      R67       -2
    C237      R68       -2
    C238      R69       -2
    C239      R70       -2
    C240      R71       -2
    C241      R72       -2
    C242      R73       -2
    C243      R74       -2
    C244      R75       -2
    C245      R76       -2
    C246      R77       -2
    C247      R78       -2
    C248      R79       -2
    C249      R80       -2
    C250      R81       -2
    C251      R82       -2
    C252      R83       -2
    C253      R84       -2
    C254      R85       -2
    C255      R86       -2
    C256      R87       -2
    C257      R88       -2
    C258      R89       -2
    C259      R90       -2
    C260      R91       -2
    C261      R92       -2
    C262      R93       -2
    C263      R94       -2
    C264      R95       -2
    C265      R96       -2
    C266      R97       -2
    C267      R98       -2
    C268      R99       -2
    C269      R100      -2
    C270      R101      -2
    C271      R102      -2
    C272      R103      -2
    C273      R104      -2
    C274      R105      -2
    C275      R106      -2
    C276      R107      -2
    C277      R108      -2
    C278      R109      -2
    C279      R110      -2
    C280      R111      -2
    C281      R112      -2
    C282      R113      -2
    C283      R114      -2
    C284      R115      -2
    C285      R116      -2
    C286      R117      -2
    C287      R118      -2
    C288      R119      -2
    C289      R120      -2
    C290      R121      -2
    C291      R122      -2
    C292      R123      -2
    C293      R124      -2
    C294      R125      -2
    C295      R126      -2
    C296      R127      -2
    C297      R128      -2
    C298      R129      -2
    C299      R130      -2
    C300      R131      -2
    C301      R132      -2
    C302      R133      -2
    C303      R134      -2
    C304      R135      -2
    C305      R136      -2
    C306      R137      -2
    C307      R138      -2
    C308      R139      -2
    C309      R140      -2
    C310      R141      -2
    C311      R142      -2
    C312      R143      -2
    C313      R144      -2
    C314      R145      -2
    C315      R146      -2
    C316      R147      -2
    C317      R148      -2
    C318      R149      -2
    C319      R150      -2
    C320      R151      -2
    C321      R152      -2
    C322      R153      -2
    C323      R154      -2
    C324      R155      -2
    C325      R156      -2
    C326      R157      -2
    C327      R158      -2
    C328      R159      -2
    C329      R160      -2
    C330      R161      -2
    C331      R162      -2
    C332      R163      -2
    C333      R164      -2
    C334      R165      -2
    C335      R166      -2
    C336      R167      -2
    C337      R168      -2
RHS
    RHS1      R165      -1
BOUNDS
 UP BND1      C0        1
 UP BND1      C1        1
 UP BND1      C2        1
 UP BND1      C3        1
 UP BND1      C4        1
 UP BND1      C5        1
 UP BND1      C6        1
 UP BND1      C7        1
 UP BND1      C8        1
 UP BND1      C9        1
 UP BND1      C10       1
 UP BND1      C11       1
 UP BND1      C12       1
 UP BND1      C13       1
 UP BND1      C14       1
 UP BND1      C15       1
 UP BND1      C16       1
 UP BND1      C17       1
 UP BND1      C18       1
 UP BND1      C19       1
 UP BND1      C20       1
 UP BND1      C21       1
 UP BND1      C22       1
 UP BND1      C23       1
 UP BND1      C24       1
 UP BND1      C25       1
 UP BND1      C26       1
 UP BND1      C27       1
 UP BND1      C28       1
 UP BND1      C29       1
 UP BND1      C30       1
 UP BND1      C31       1
 UP BND1      C32       1
 UP BND1      C33       1
 UP BND1      C34       1
 UP BND1      C35       1
 UP BND1      C36       1
 UP BND1      C37       1
 UP BND1      C38       1
 UP BND1      C39       1
 UP BND1      C40       1
 UP BND1      C41       1
 UP BND1      C42       1
 UP BND1      C43       1
 UP BND1      C44       1
 UP BND1      C45       1
 UP BND1      C46       1
 UP BND1      C47       1
 UP BND1      C48       1
 UP BND1      C49       1
 UP BND1      C50       1
 UP BND1      C51       1
 UP BND1      C52       1
 UP BND1      C53       1
 UP BND1      C54       1
 UP BND1      C55       1
 UP BND1      C56       1
 UP BND1      C57       1
 UP BND1      C58       1
 UP BND1      C59       1
 UP BND1      C60       1
 UP BND1      C61       1
 UP BND1      C62       1
 UP BND1      C63       1
 UP BND1      C64       1
 UP BND1      C65       1
 UP BND1      C66       1
 UP BND1      C67       1
 UP BND1      C68       1
 UP BND1      C69       1
 UP BND1      C70       1
 UP BND1      C71       1
 UP BND1      C72       1
 UP BND1      C73       1
 UP BND1      C74       1
 UP BND1      C75       1
 UP BND1      C76       1
 UP BND1      C77       1
 UP BND1      C78       1
 UP BND1      C79       1
 UP BND1      C80       1
 UP BND1      C81       1
 UP BND1      C82       1
 UP BND1      C83       1
 UP BND1      C84       1
 UP BND1      C85       1
 UP BND1      C86       1
 UP BND1      C87       1
 UP BND1      C88       1
 UP BND1      C89       1
 UP BND1      C90       1
 UP BND1      C91       1
 UP BND1      C92       1
 UP BND1      C93       1
 UP BND1      C94       1
 UP BND1      C95       1
 UP BND1      C96       1
 UP BND1      C97       1
 UP BND1      C98       1
 UP BND1      C99       1
 UP BND1      C100      1
 UP BND1      C101      1
 UP BND1      C102      1
 UP BND1      C103      1
 UP BND1      C104      1
 UP BND1      C105      1
 UP BND1      C106      1
 UP BND1      C107      1
 UP BND1      C108      1
 UP BND1      C109      1
 UP BND1      C110      1
 UP BND1      C111      1
 UP BND1      C112      1
 UP BND1      C113      1
 UP BND1      C114      1
 UP BND1      C115      1
 UP BND1      C116      1
 UP BND1      C117      1
 UP BND1      C118      1
 UP BND1      C119      1
 UP BND1      C120      1
 UP BND1      C121      1
 UP BND1      C122      1
 UP BND1      C123      1
 UP BND1      C124      1
 UP BND1      C125      1
 UP BND1      C126      1
 UP BND1      C127      1
 UP BND1      C128      1
 UP BND1      C129      1
 UP BND1      C130      1
 UP BND1      C131      1
 UP BND1      C132      1
 UP BND1      C133      1
 UP BND1      C134      1
 UP BND1      C135      1
 UP BND1      C136      1
 UP BND1      C137      1
 UP BND1      C138      1
 UP BND1      C139      1
 UP BND1      C140      1
 UP BND1      C141      1
 UP BND1      C142      1
 UP BND1      C143      1
 UP BND1      C144      1
 UP BND1      C145      1
 UP BND1      C146      1
 UP BND1      C147      1
 UP BND1      C148      1
 UP BND1      C149      1
 UP BND1      C150      1
 UP BND1      C151      1
 UP BND1      C152      1
 UP BND1      C153      1
 UP BND1      C154      1
 UP BND1      C155      1
 UP BND1      C156      1
 UP BND1      C157      1
 UP BND1      C158      1
 UP BND1      C159      1
 UP BND1      C160      1
 UP BND1      C161      1
 UP BND1      C162      1
 UP BND1      C163      1
 UP BND1      C164      1
 UP BND1      C165      1
 UP BND1      C166      1
 UP BND1      C167      1
 UP BND1      C168      1
ENDATA
